! TightOPT PBE0 D3BJ RIJCOSX def2-TZVP def2/J CPCM(water)

# Do frequency calculation (produce .hess file)
! AnFreq

! 6-311++G(d,p)
! ZORA ZORA-def2-TZVP SARC/J

%basis
  NewGTO Zn "def2-TZVPP" end
end

# Specify numnber of processors
%pal nprocs 16
  end

# Constrain Calpha atoms
%geom Constraints
    {C [CA_ATOM] C}  # Freeze all coordinates (X, Y, Z) of atom [CA_ATOM]
  end
end

# Use xyz file, first number is charge, second number is multiplicity (2S+1)
*xyzfile [CHARGE] [MULTIPLICITY] [ID_DIR]/[PDB_ID]_clean.xyz
